============================[ Problem Statistics ]=============================|                                                                             ||  Number of variables:          4242                                         ||  Number of clauses:           10443                                         ||  Parse time:                   0.84 s                                       ||                                                                             |============================[ Search Statistics ]==============================| Conflicts |          ORIGINAL         |          LEARNT          | Progress ||           |    Vars  Clauses Literals |    Limit  Clauses Lit/Cl |          |===============================================================================|       100 |    1591     6648  1324369 |     2437      100     53 | 62.501 % ||       250 |    1591     6648  1324369 |     2681      250     75 | 62.495 % |===============================================================================restarts              : 4conflicts             : 447            (355 /sec)decisions             : 805            (0.00 % random) (640 /sec)propagations          : 13738          (10921 /sec)conflict literals     : 37825          (94.46 % deleted)CPU time              : 1.258 sSATISFIABLE